10
1 0 27
2 0 1
2 1 23
3 0 11
3 1 12
3 2 11
4 0 25
4 1 8
4 2 14
4 3 9
5 0 5
5 1 2
5 2 24
5 3 22
5 4 8
6 0 23
6 1 26
6 2 19
6 3 14
6 4 11
6 5 18
7 0 14
7 1 7
7 2 24
7 3 13
7 4 4
7 5 7
7 6 16
8 0 7
8 1 11
8 2 21
8 3 8
8 4 12
8 5 15
8 6 4
8 7 22
9 0 18
9 1 16
9 2 13
9 3 3
9 4 24
9 5 6
9 6 9
9 7 1
9 8 14
